mixintcount/benchmarks/random_v2l/4_4_5623.smt2
(set-logic QF_LIA)
(set-info :ran/ran2.smt2)
(set-info :smt-lib-version 2.0)
(declare-fun x1 () Int)
(declare-fun x2 () Int)
(declare-fun x3 () Int)
(declare-fun x4 () Int)
(assert (<= (+ (* 1 x1) (* 7 x2) (* 0 x3) (* 10 x4) ) 1898))
(assert (<= (+ (* 5 x1) (* 6 x2) (* 8 x3) (* (- 4) x4) ) 2486))
(assert (<= (+ (* (- 4) x1) (* (- 9) x2) (* 5 x3) (* (- 1) x4) ) (- 3609)))
(assert (<= (+ (* 7 x1) (* 8 x2) (* (- 4) x3) (* 1 x4) ) 3751))
(assert (<= (+ (* (- 4) x1) (* 4 x2) (* (- 4) x3) (* 2 x4) ) 4938))
(assert (<= (+ (* (- 8) x1) (* (- 6) x2) (* (- 8) x3) (* (- 1) x4) ) 1684))
(assert (<= (+ (* (- 4) x1) (* 8 x2) (* 7 x3) (* 6 x4) ) 1028))
(assert (<= (+ (* 6 x1) (* 0 x2) (* 1 x3) (* 1 x4) ) (- 589)))
(assert (<= (+ (* 1 x1) (* 0 x2) (* 0 x3) (* 0 x4) ) 5623))
(assert (<= (+ (* (- 1) x1) (* 0 x2) (* 0 x3) (* 0 x4) ) 5623))
(assert (<= (+ (* 0 x1) (* 1 x2) (* 0 x3) (* 0 x4) ) 5623))
(assert (<= (+ (* 0 x1) (* (- 1) x2) (* 0 x3) (* 0 x4) ) 5623))
(assert (<= (+ (* 0 x1) (* 0 x2) (* 1 x3) (* 0 x4) ) 5623))
(assert (<= (+ (* 0 x1) (* 0 x2) (* (- 1) x3) (* 0 x4) ) 5623))
(assert (<= (+ (* 0 x1) (* 0 x2) (* 0 x3) (* 1 x4) ) 5623))
(assert (<= (+ (* 0 x1) (* 0 x2) (* 0 x3) (* (- 1) x4) ) 5623))
