mixintcount/benchmarks/random_v2l/4_4_5623.in
16 6
#	x1	x2	x3	x4;		0 = Real; 1 = Integer
	1	1	1	1
1	1	7	0	10	1898
1	5	6	8	-4	2486
1	-4	-9	5	-1	-3609
1	7	8	-4	1	3751
1	-4	4	-4	2	4938
1	-8	-6	-8	-1	1684
1	-4	8	7	6	1028
1	6	0	1	1	-589
1	1	0	0	0	5623
1	-1	0	0	0	5623
1	0	1	0	0	5623
1	0	-1	0	0	5623
1	0	0	1	0	5623
1	0	0	-1	0	5623
1	0	0	0	1	5623
1	0	0	0	-1	5623
